709 829 368 488
848 968 390 510
762 882 429 549
751 871 413 533
844 964 376 496
786 906 459 579
690 810 360 472
784 904 444 564
854 974 370 490
854 974 415 535
796 916 374 494
833 953 429 549
732 852 434 554
911 1031 391 511
879 999 360 480
707 827 360 465
780 900 412 532
798 918 427 547
836 956 409 529
827 947 432 552
938 1058 393 513
732 852 398 518
883 1003 406 526
863 983 382 502
580 700 365 485
707 827 404 524
805 925 470 590
696 816 413 533
786 906 407 527
701 821 389 509
800 920 405 525
759 879 436 556
756 876 434 554
719 839 440 560
800 920 381 501
837 957 414 534
799 919 371 491
725 845 392 512
942 1062 503 623
818 938 360 454
741 861 397 517
727 847 386 506
840 960 399 519
758 878 449 569
782 902 367 487
849 969 360 477
733 853 406 526
824 944 376 496
813 933 394 514
758 878 363 483
